Academic license - for non-commercial use only
Gurobi Optimizer version 9.0.3 build v9.0.3rc0 (mac64)
Optimize a model with 96164 rows, 90720 columns and 526770 nonzeros
Model fingerprint: 0xc56ff3dc
Variable types: 0 continuous, 90720 integer (90720 binary)
Coefficient statistics:
  Matrix range     [1e+00, 1e+00]
  Objective range  [1e+01, 3e+04]
  Bounds range     [1e+00, 1e+00]
  RHS range        [1e+00, 2e+02]
Presolve added 0 rows and 2470 columns
Presolve removed 30 rows and 0 columns
Presolve time: 1.45s
Presolved: 96134 rows, 93190 columns, 384210 nonzeros
Variable types: 0 continuous, 93190 integer (93190 binary)
Found heuristic solution: objective 288210.00000

Concurrent LP optimizer: dual simplex and barrier
Showing barrier log only...

Root barrier log...

Ordering time: 0.25s

Barrier statistics:
 Dense cols : 360
 AA' NZ     : 2.982e+05
 Factor NZ  : 1.555e+06 (roughly 90 MBytes of memory)
 Factor Ops : 4.160e+08 (less than 1 second per iteration)
 Threads    : 3

                  Objective                Residual
Iter       Primal          Dual         Primal    Dual     Compl     Time
   0   7.36585505e+07 -1.10641329e+08  2.04e+02 3.27e+01  9.52e+03     3s
   1   6.78488697e+05 -1.16418769e+08  1.13e+00 2.56e+03  4.66e+02     3s
   2   3.86899920e+05 -4.66043947e+07  2.57e-01 9.62e+02  1.74e+02     3s
   3   3.41028065e+05 -1.30293935e+07  1.17e-01 2.56e+02  4.89e+01     3s
   4   3.00768909e+05 -6.75074624e+05  7.49e-03 2.15e+01  3.51e+00     3s
   5   2.83680919e+05 -1.32832664e+05  5.14e-03 8.18e+00  1.49e+00     3s
   6   2.64679431e+05  1.00582727e+05  3.27e-03 2.73e+00  5.87e-01     3s
   7   2.56942579e+05  1.58078142e+05  2.66e-03 1.32e+00  3.53e-01     3s
   8   2.49513658e+05  1.79415770e+05  2.07e-03 8.80e-01  2.50e-01     3s
   9   2.46175609e+05  1.91491289e+05  1.84e-03 5.96e-01  1.95e-01     4s
  10   2.40783876e+05  1.98875771e+05  1.47e-03 4.21e-01  1.49e-01     4s
  11   2.39352357e+05  2.03056153e+05  1.37e-03 3.24e-01  1.29e-01     4s
  12   2.35296905e+05  2.07530928e+05  1.12e-03 2.22e-01  9.86e-02     4s
  13   2.31630564e+05  2.10490910e+05  8.95e-04 1.55e-01  7.50e-02     4s
  14   2.28182113e+05  2.12571884e+05  6.71e-04 1.09e-01  5.54e-02     4s
  15   2.26208277e+05  2.13866057e+05  5.46e-04 8.08e-02  4.38e-02     4s
  16   2.23799889e+05  2.15237151e+05  3.95e-04 5.20e-02  3.04e-02     4s
  17   2.22017506e+05  2.15709828e+05  2.76e-04 4.26e-02  2.24e-02     4s
  18   2.21347624e+05  2.16189352e+05  2.30e-04 3.32e-02  1.83e-02     5s
  19   2.20592812e+05  2.16700211e+05  1.77e-04 2.33e-02  1.38e-02     5s
  20   2.19729861e+05  2.17019039e+05  1.17e-04 1.73e-02  9.62e-03     5s
  21   2.19473507e+05  2.17401044e+05  9.92e-05 1.08e-02  7.35e-03     5s
  22   2.19093512e+05  2.17581063e+05  7.34e-05 7.36e-03  5.36e-03     5s
  23   2.18724402e+05  2.17680771e+05  4.98e-05 5.53e-03  3.70e-03     5s
  24   2.18615938e+05  2.17758518e+05  4.19e-05 4.16e-03  3.04e-03     5s
  25   2.18422258e+05  2.17806941e+05  2.80e-05 3.34e-03  2.18e-03     5s
  26   2.18342144e+05  2.17871914e+05  2.23e-05 2.36e-03  1.67e-03     5s
  27   2.18261717e+05  2.17919965e+05  1.67e-05 1.60e-03  1.21e-03     5s
  28   2.18206478e+05  2.17944575e+05  1.28e-05 1.19e-03  9.28e-04     6s
  29   2.18149300e+05  2.17957139e+05  8.97e-06 9.76e-04  6.81e-04     6s
  30   2.18116324e+05  2.17971265e+05  6.72e-06 7.62e-04  5.14e-04     6s
  31   2.18092836e+05  2.17990923e+05  5.08e-06 4.56e-04  3.61e-04     6s
  32   2.18075672e+05  2.17995387e+05  3.89e-06 3.82e-04  2.84e-04     6s
  33   2.18072119e+05  2.18002008e+05  3.63e-06 2.84e-04  2.48e-04     6s
  34   2.18061235e+05  2.18007116e+05  2.86e-06 2.00e-04  1.92e-04     6s
  35   2.18053430e+05  2.18012091e+05  2.29e-06 1.30e-04  1.46e-04     6s
  36   2.18044668e+05  2.18015639e+05  1.66e-06 7.69e-05  1.03e-04     6s
  37   2.18040548e+05  2.18016317e+05  1.41e-06 6.58e-05  8.57e-05     6s
  38   2.18036588e+05  2.18017184e+05  1.11e-06 5.37e-05  6.86e-05     6s
  39   2.18033950e+05  2.18018464e+05  9.31e-07 3.32e-05  5.47e-05     7s
  40   2.18029734e+05  2.18019046e+05  6.46e-07 2.44e-05  3.78e-05     7s
  41   2.18028797e+05  2.18019772e+05  5.85e-07 1.49e-05  3.19e-05     7s
  42   2.18026407e+05  2.18019913e+05  4.12e-07 1.31e-05  2.29e-05     7s
  43   2.18025732e+05  2.18020123e+05  3.62e-07 1.05e-05  1.98e-05     7s
  44   2.18024672e+05  2.18020206e+05  2.80e-07 9.54e-06  1.58e-05     7s
  45   2.18023611e+05  2.18020430e+05  2.01e-07 6.43e-06  1.12e-05     7s
  46   2.18022551e+05  2.18020607e+05  1.20e-07 4.12e-06  6.87e-06     7s
  47   2.18021956e+05  2.18020692e+05  7.40e-08 2.88e-06  4.47e-06     7s
  48   2.18021561e+05  2.18020732e+05  4.58e-08 2.42e-06  2.93e-06     7s
  49   2.18021307e+05  2.18020839e+05  2.61e-08 1.28e-06  1.66e-06     7s
  50   2.18021261e+05  2.18020872e+05  2.24e-08 9.50e-07  1.37e-06     7s
  51   2.18021110e+05  2.18020943e+05  1.11e-08 5.18e-07  5.91e-07     8s
  52   2.18021034e+05  2.18020957e+05  5.19e-09 1.93e-07  2.70e-07     8s
  53   2.18020971e+05  2.18020967e+05  1.04e-10 1.13e-07  1.45e-08     8s
  54   2.18020971e+05  2.18020967e+05  4.67e-09 1.09e-07  1.40e-08     8s
  55   2.18020971e+05  2.18020967e+05  4.67e-09 1.09e-07  1.40e-08     8s
  56   2.18020971e+05  2.18020967e+05  4.67e-09 1.09e-07  1.40e-08     8s

Barrier solved model in 56 iterations and 8.00 seconds
Optimal objective 2.18020971e+05


Root crossover log...

   22198 DPushes remaining with DInf 0.0000000e+00                 8s
       0 DPushes remaining with DInf 0.0000000e+00                 8s

     749 PPushes remaining with PInf 1.3988551e-06                 8s
       0 PPushes remaining with PInf 0.0000000e+00                 9s

  Push phase complete: Pinf 0.0000000e+00, Dinf 2.3172930e-10      9s


Root simplex log...

Iteration    Objective       Primal Inf.    Dual Inf.      Time
    4295    2.1802097e+05   0.000000e+00   0.000000e+00      9s

Solved with barrier

Root relaxation: objective 2.180210e+05, 4295 iterations, 6.59 seconds

    Nodes    |    Current Node    |     Objective Bounds      |     Work
 Expl Unexpl |  Obj  Depth IntInf | Incumbent    BestBd   Gap | It/Node Time

     0     0 218020.969    0 10914 288210.000 218020.969  24.4%     -    9s
H    0     0                    240430.00000 218020.969  9.32%     -   11s
     0     0 218022.073    0 10908 240430.000 218022.073  9.32%     -   15s
H    0     0                    239805.00000 218022.073  9.08%     -   21s
     0     0 218022.622    0 10906 239805.000 218022.622  9.08%     -   22s
     0     0 218025.133    0 10907 239805.000 218025.133  9.08%     -   25s
     0     0 218025.516    0 10906 239805.000 218025.516  9.08%     -   26s
     0     0 218025.790    0 10912 239805.000 218025.790  9.08%     -   27s
     0     0 218025.794    0 10912 239805.000 218025.794  9.08%     -   27s
     0     0 218025.794    0 10912 239805.000 218025.794  9.08%     -   34s
H    0     2                    239548.00000 218026.057  8.98%     -   55s
     0     2 218026.057    0 10912 239548.000 218026.057  8.98%     -   55s
     1     4 218150.489    1 10966 239548.000 218026.057  8.98% 13496  104s
     3     8 218203.636    2 11538 239548.000 218150.632  8.93% 14573  144s
     7    12 218207.539    3 11243 239548.000 218207.539  8.91% 13729  153s
    11    16 218317.577    4 11007 239548.000 218207.696  8.91% 10404  185s
    15    20 219125.867    5 11665 239548.000 218207.696  8.91% 12790  249s
H   18    20                    227676.00000 218207.696  4.16% 12019  249s
    19    24 218398.590    5 11187 227676.000 218207.696  4.16% 11753  260s
    23    30 218414.914    6 11606 227676.000 218207.696  4.16% 10238  296s
H   26    30                    222017.00000 218207.696  1.72%  9715  296s
    29    31 219764.321    7 10256 222017.000 218207.696  1.72%  9430  300s

Cutting planes:
  Gomory: 6

Explored 30 nodes (281475 simplex iterations) in 300.08 seconds
Thread count was 8 (of 8 available processors)

Solution count 6: 222017 227676 239548 ... 288210

Time limit reached
Best objective 2.220170000000e+05, best bound 2.182080000000e+05, gap 1.7156%

User-callback calls 112363, time in user-callback 0.63 sec
Solution written to /Users/mdeboute/Desktop/Etudes/Master/M2/S9/GOPP/Projet/multi-period-flp/solution/instSingle_I30_J250_T12_1_result.txt
